LAMMPS (29 Aug 2024)
OMP_NUM_THREADS environment is not set. Defaulting to 1 thread. (src/comm.cpp:98)
  using 1 OpenMP thread(s) per MPI task
# Unit system: real, LJ, metal etc., check details on LAMMPS doc
units      real

# Dimension of your simulation box
dimension  3

# Boundary condition:
# p: periodic boundary condition (PBC)
boundary   p p p

# Format for your data file
atom_style full

# Read system data such as number of atoms, number of covalent bonds,
# atomic informations, coordinates etc.
read_data SPCE_water.data
Reading data file ...
  orthogonal box = (-10.40103 -10.40103 -10.40103) to (10.40103 10.40103 10.40103)
  1 by 1 by 1 MPI processor grid
  reading atoms ...
  900 atoms
  scanning bonds ...
  2 = max bonds/atom
  scanning angles ...
  1 = max angles/atom
  orthogonal box = (-10.40103 -10.40103 -10.40103) to (10.40103 10.40103 10.40103)
  1 by 1 by 1 MPI processor grid
  reading bonds ...
  600 bonds
  reading angles ...
  300 angles
Finding 1-2 1-3 1-4 neighbors ...
  special bond factors lj:    0        0        0       
  special bond factors coul:  0        0        0       
     2 = max # of 1-2 neighbors
     1 = max # of 1-3 neighbors
     1 = max # of 1-4 neighbors
     2 = max # of special neighbors
  special bonds CPU = 0.000 seconds
  read_data CPU = 0.005 seconds


pair_style lj/cut/coul/long 10.0 10.0

pair_coeff 2 2 0.1502629 3.1169
pair_coeff 1 2 0.0341116368 2.04845
pair_coeff 1 1 0.00774378 0.98

bond_style  harmonic
bond_coeff  1 176.864 0.9611

angle_style harmonic
angle_coeff 1 42.1845 109.4712

kspace_style pppm 1.0e-5


variable Dt equal 0.5e0

variable T equal 293.15
variable Tdamp equal 100*${Dt}
variable Tdamp equal 100*0.5

velocity all create $T 12345689 dist uniform
velocity all create 293.15 12345689 dist uniform

variable P equal 1.0
variable Pdamp equal 1000*${Dt}
variable Pdamp equal 1000*0.5

timestep ${Dt}
timestep 0.5

fix 1 all npt temp $T $T ${Tdamp} iso $P $P ${Pdamp}
fix 1 all npt temp 293.15 $T ${Tdamp} iso $P $P ${Pdamp}
fix 1 all npt temp 293.15 293.15 ${Tdamp} iso $P $P ${Pdamp}
fix 1 all npt temp 293.15 293.15 50 iso $P $P ${Pdamp}
fix 1 all npt temp 293.15 293.15 50 iso 1 $P ${Pdamp}
fix 1 all npt temp 293.15 293.15 50 iso 1 1 ${Pdamp}
fix 1 all npt temp 293.15 293.15 50 iso 1 1 500
fix 2 all recenter 0.5 0.5 0.5 units fraction

neighbor 2.0 bin
neigh_modify delay 0 every 10 check yes

thermo      100
thermo_style custom step temp press vol
thermo_modify norm no flush yes

compute adfcompute all adf 361 2 2 2 0.5 3.5 0.5 3.5
fix 3 all ave/time 500 200 100000 c_adfcompute[*] file oxygen.adf mode vector

dump            2 all custom 500 water.dump id type xu yu zu
dump_modify     2 sort id

run 100000

CITE-CITE-CITE-CITE-CITE-CITE-CITE-CITE-CITE-CITE-CITE-CITE-CITE

Your simulation uses code contributions which should be cited:

- Type Label Framework: https://doi.org/10.1021/acs.jpcb.3c08419

@Article{Gissinger24,
 author = {Jacob R. Gissinger, Ilia Nikiforov, Yaser Afshar, Brendon Waters, Moon-ki Choi, Daniel S. Karls, Alexander Stukowski, Wonpil Im, Hendrik Heinz, Axel Kohlmeyer, and Ellad B. Tadmor},
 title = {Type Label Framework for Bonded Force Fields in LAMMPS},
 journal = {J. Phys. Chem. B},
 year =    2024,
 volume =  128,
 number =  13,
 pages =   {3282–-3297}
}

CITE-CITE-CITE-CITE-CITE-CITE-CITE-CITE-CITE-CITE-CITE-CITE-CITE

PPPM initialization ...
  using 12-bit tables for long-range coulomb (src/kspace.cpp:342)
  G vector (1/distance) = 0.30463625
  grid = 18 18 18
  stencil order = 5
  estimated absolute RMS force accuracy = 0.0031438291
  estimated relative force accuracy = 9.4675479e-06
  using double precision FFTW3
  3d grid and FFT values/proc = 15625 5832
Generated 0 of 1 mixed pair_coeff terms from geometric mixing rule
Neighbor list info ...
  update: every = 10 steps, delay = 0 steps, check = yes
  max neighbors/atom: 2000, page size: 100000
  master list distance cutoff = 12
  ghost atom cutoff = 12
  binsize = 6, bins = 4 4 4
  2 neighbor lists, perpetual/occasional/extra = 1 1 0
  (1) pair lj/cut/coul/long, perpetual
      attributes: half, newton on
      pair build: half/bin/newton
      stencil: half/bin/3d
      bin: standard
  (2) compute adf, occasional
      attributes: full, newton on
      pair build: full/bin
      stencil: full/bin/3d
      bin: standard
Per MPI rank memory allocation (min/avg/max) = 10.41 | 10.41 | 10.41 Mbytes
   Step          Temp          Press          Volume    
         0   293.15        -594.32841      9001.5859    
       100   640.72981     -6665.728       9201.0124    
       200   533.56893      5851.1107      9414.0944    
       300   436.72375      8501.3015      9496.8334    
       400   362.55484      7780.6144      9395.4598    
       500   328.19146      4753.4208      9211.6518    
       600   311.02694     -2019.7599      9074.7318    
       700   297.33753     -6431.1878      8927.3129    
       800   281.36287     -8130.238       8730.6909    
       900   280.36355     -4752.2482      8554.3052    
      1000   293.2418      -1986.1858      8505.0273    
      1100   296.76278     -704.80644      8554.5086    
      1200   302.7536       2098.9298      8603.8882    
      1300   290.0467       4218.7258      8612.9165    
      1400   298.00183      6626.8737      8615.2397    
      1500   291.93905      2932.4014      8682.4639    
      1600   287.09644      987.97061      8729.0189    
      1700   293.29832     -1192.0048      8737.4355    
      1800   295.06102     -2563.6781      8750.0561    
      1900   298.88129     -3404.0959      8793.0052    
      2000   287.65588     -2985.0902      8854.9802    
      2100   295.34046     -4004.5217      8891.3444    
      2200   291.54203     -187.49         8824.5038    
      2300   303.35128      2075.754       8744.0121    
      2400   311.43736      2031.7367      8686.0778    
      2500   293.25622      3304.9544      8623.924     
      2600   279.27944      2908.787       8586.622     
      2700   292.46179      54.344558      8561.5857    
      2800   303.84734     -1319.0311      8529.0368    
      2900   304.59508     -2407.561       8540.2556    
      3000   291.61822     -4287.0484      8598.716     
      3100   292.5164      -2845.3678      8634.797     
      3200   275.70257     -1681.486       8645.8542    
      3300   298.50424      488.99232      8634.8627    
      3400   298.26741      2227.8895      8622.729     
      3500   302.65454      2609.5933      8604.136     
      3600   284.46901      2219.4066      8581.5549    
      3700   288.02702      2081.4845      8545.8449    
      3800   287.44309      1064.7408      8516.2522    
      3900   299.10241     -1593.5711      8528.3771    
      4000   309.66657     -1705.6976      8572.6826    
      4100   286.28231     -2076.3224      8669.1648    
      4200   291.21388     -2163.0701      8756.3034    
      4300   289.89833     -1622.3121      8780.8913    
      4400   290.15678      54.759822      8762.9219    
      4500   292.99569      2062.1759      8736.3242    
      4600   287.00441      1931.7614      8720.5186    
      4700   304.50573      1479.8772      8721.1761    
      4800   287.44274      951.75197      8704.9371    
      4900   292.51644      1607.492       8684.7831    
      5000   297.03192     -1576.4545      8729.4132    
      5100   292.35277     -2502.0028      8787.9361    
      5200   292.70013     -3249.997       8791.6582    
      5300   283.47431     -1444.8541      8710.0552    
      5400   301.41658     -816.99628      8645.8396    
      5500   290.45243      1451.2762      8615.6631    
      5600   289.79496      405.69182      8648.6747    
      5700   292.87696      1057.5293      8677.1946    
      5800   291.79462      1087.3861      8667.0671    
      5900   308.61303      106.47332      8612.8949    
      6000   302.04385     -21.417202      8547.032     
      6100   294.42241     -440.38639      8486.1651    
      6200   290.27288     -1602.2883      8450.2857    
      6300   281.86356     -986.841        8455.0005    
      6400   305.60937     -1428.2916      8481.6755    
      6500   282.92623     -1454.6415      8506.2886    
      6600   278.7399       437.52461      8498.8152    
      6700   289.32193      2477.6218      8507.2999    
      6800   296.15398      1325.2966      8602.4906    
      6900   299.48242      960.4009       8722.0818    
      7000   295.97679     -503.92895      8803.6334    
      7100   289.86408     -1338.9641      8772.7314    
      7200   289.70316     -1008.9565      8659.7817    
      7300   292.53765     -1008.8661      8540.245     
      7400   292.53978     -370.87293      8470.3903    
      7500   283.93615      351.27969      8458.6755    
      7600   286.81208      29.503335      8502.9252    
      7700   291.14193     -438.46352      8555.8762    
      7800   303.98733      1382.9813      8562.6643    
      7900   295.81385      2515.9949      8560.3905    
      8000   290.25447     -603.41744      8597.1152    
      8100   277.39165     -797.39916      8572.1672    
      8200   282.21081      320.55263      8516.5518    
      8300   299.83746     -2223.6798      8546.7548    
      8400   287.19424     -1901.5193      8602.1125    
      8500   296.07833     -1691.7476      8658.723     
      8600   293.53322     -1321.0278      8694.4939    
      8700   277.61588     -514.48924      8670.0685    
      8800   280.10661      1792.1998      8611.1419    
      8900   295.68443      2670.976       8593.3862    
      9000   295.65297      2417.8429      8608.1279    
      9100   291.29829      592.09812      8638.7348    
      9200   300.22856     -981.47783      8667.4789    
      9300   283.54347     -654.81233      8695.8747    
      9400   282.17502     -2445.1732      8748.4243    
      9500   294.60008     -1146.5583      8793.9828    
      9600   296.6712      -1542.4707      8810.3669    
      9700   294.92296      2583.8402      8748.6222    
      9800   290.11084      2559.1868      8769.2102    
      9900   282.26039      580.41124      8851.9523    
     10000   292.97873     -424.4282       8874.5342    
     10100   297.76986      6.5351958      8825.9125    
     10200   295.29905      484.57719      8733.7608    
     10300   289.79023      1259.0215      8647.2228    
     10400   280.27572      1001.2444      8610.2886    
     10500   282.84071     -651.7022       8624.7758    
     10600   290.42984     -1437.9664      8631.6507    
     10700   299.50156      799.31678      8592.8767    
     10800   304.65006      1219.1524      8576.7287    
     10900   287.30004     -249.23326      8586.4311    
     11000   283.51906     -621.00343      8583.5319    
     11100   293.25462     -779.6824       8537.6115    
     11200   298.64426      834.05144      8486.86      
     11300   294.60271      763.02597      8507.3661    
     11400   294.28613      1458.3643      8538.4726    
     11500   288.07287      1463.7719      8563.6906    
     11600   307.13274      1694.9984      8590.0478    
     11700   290.95227      636.46274      8598.046     
     11800   289.72766     -303.15584      8592.5052    
     11900   294.1015      -635.73093      8594.3723    
     12000   292.95513     -2170.4894      8600.0318    
     12100   295.85985     -1174.0479      8578.5316    
     12200   292.40594     -1981.7893      8543.678     
     12300   288.81113      532.89067      8474.7109    
     12400   297.42461      1333.2227      8469.1482    
     12500   304.00444     -1.4547025      8562.9265    
     12600   295.63583     -1113.9634      8660.7883    
     12700   282.86496      258.74106      8679.7577    
     12800   297.42764      1420.6543      8666.9196    
     12900   295.99721      587.31176      8686.0194    
     13000   289.74985     -477.80683      8724.5833    
     13100   294.33821     -781.44168      8759.9173    
     13200   300.60803     -62.355884      8773.3225    
     13300   299.21769     -819.9072       8777.4015    
     13400   292.72172     -959.271        8745.8454    
     13500   282.68245      524.04171      8675.3959    
     13600   290.01123      274.17092      8609.9584    
     13700   297.32798      63.7701        8587.3643    
     13800   289.65969     -1859.3304      8611.6246    
     13900   286.91552     -1000.7303      8636.3957    
     14000   280.19109     -1539.3245      8652.3855    
     14100   277.78722     -619.41579      8642.1381    
     14200   301.19699      989.64924      8612.0267    
     14300   300.50376      1383.7408      8614.0535    
     14400   286.42045      1103.8961      8647.0508    
     14500   295.49762     -427.3495       8679.9636    
     14600   289.9343      -379.40872      8665.9896    
     14700   285.37733      913.51208      8645.9113    
     14800   310.84615     -1602.0644      8679.7503    
     14900   292.62979     -1809.8736      8694.9003    
     15000   297.35803     -256.81382      8655.1352    
     15100   288.62104      1334.3546      8591.5813    
     15200   282.14855      1073.6572      8578.6599    
     15300   296.52815      113.98607      8601.1782    
     15400   294.32024     -238.17166      8621.4835    
     15500   294.59241     -372.26722      8620.2277    
     15600   295.09279     -1187.6669      8602.7894    
     15700   276.24181      94.825544      8551.3852    
     15800   282.60624      578.34645      8462.657     
     15900   291.62258      2913.1593      8377.4072    
     16000   295.84151      224.02246      8378.8206    
     16100   301.5054       879.85699      8404.3792    
     16200   284.28065     -340.70005      8468.1265    
     16300   285.68918     -690.08213      8560.0889    
     16400   296.53829     -157.00967      8640.9066    
     16500   302.25651     -1982.6         8733.7642    
     16600   299.18236     -1600.4343      8791.3101    
     16700   297.96515     -613.4442       8795.2849    
     16800   290.29443      444.14946      8753.195     
     16900   286.92892      1272.6262      8677.6649    
     17000   299.04249      2868.3983      8599.5308    
     17100   303.64431      2129.0501      8602.3644    
     17200   301.90316     -895.99278      8706.2807    
     17300   284.71315     -1372.6309      8793.4427    
     17400   285.81276     -2217.1133      8809.8067    
     17500   292.05518     -613.10937      8736.7914    
     17600   299.6313       640.38394      8674.3134    
     17700   302.56992      156.15549      8682.9084    
     17800   293.1806       1231.9075      8733.4418    
     17900   286.51608     -911.18519      8805.6118    
     18000   292.07772      456.10291      8818.1289    
     18100   294.32654      348.13216      8787.4417    
     18200   298.06587      1973.2815      8726.8287    
     18300   301.45988      834.27534      8701.941     
     18400   293.15366     -1056.3399      8688.6937    
     18500   283.66119     -1695.8388      8603.9514    
     18600   290.31237     -142.22554      8490.0074    
     18700   305.14777     -432.51293      8461.3521    
     18800   288.87188     -2510.1777      8514.0642    
     18900   289.56863     -1450.0915      8534.4153    
     19000   290.6497       1882.4366      8506.0956    
     19100   301.71365      726.36253      8504.2512    
     19200   288.90818      1315.2595      8508.9283    
     19300   299.06219      1248.0641      8507.2201    
     19400   289.56217      813.84995      8484.7482    
     19500   286.27886      1010.3981      8467.8589    
     19600   287.18472      252.8391       8486.2274    
     19700   280.06188      179.87395      8507.096     
     19800   288.57826     -1169.9084      8554.5768    
     19900   287.20565     -1324.4619      8595.7572    
     20000   304.71922     -1131.0269      8597.6696    
     20100   289.52006     -851.39227      8569.626     
     20200   288.87241      1018.6537      8526.7688    
     20300   285.65145      1868.2734      8518.7098    
     20400   283.95631      2348.6069      8563.581     
     20500   300.57131      158.14263      8669.0532    
     20600   304.61225     -480.37082      8782.678     
     20700   286.80061     -1762.1033      8851.722     
     20800   300.07875     -698.5441       8815.8071    
     20900   286.8652       1570.094       8761.8731    
     21000   290.38737     -1721.7718      8809.8732    
     21100   283.60597     -1786.0971      8802.8331    
     21200   284.89282      859.08708      8688.4924    
     21300   313.58984      2224.2849      8586.7765    
     21400   297.37655      1641.7678      8596.5729    
     21500   289.46885      35.662639      8649.979     
     21600   299.35545     -667.09015      8640.1542    
     21700   296.14707      1409.023       8583.3566    
     21800   306.8524      -332.0165       8570.7127    
     21900   298.3631      -1584.4052      8586.1688    
     22000   291.05211     -400.35218      8582.7758    
     22100   304.69019     -135.40384      8606.8697    
     22200   288.90108     -1193.7217      8653.0298    
     22300   296.20062      509.05648      8638.9814    
     22400   303.45005      1292.0727      8564.827     
     22500   315.27023      2757.4118      8504.9322    
     22600   297.37661      905.17896      8517.9455    
     22700   287.2379       940.70422      8556.4848    
     22800   291.93064     -620.64853      8622.0108    
     22900   301.78274     -1662.9019      8683.5052    
     23000   298.77002     -3086.295       8732.6787    
     23100   291.07191     -2519.9936      8723.7031    
     23200   303.98949     -2469.6762      8662.0216    
     23300   300.52658      619.51609      8525.8987    
     23400   285.95288      3300.873       8423.7967    
     23500   282.81652      2353.2415      8433.1746    
     23600   278.44292      1932.1628      8489.6212    
     23700   285.54734      560.79259      8578.411     
     23800   291.73125     -1316.66        8663.872     
     23900   301.69328     -1844.1754      8668.5614    
     24000   301.02664     -567.24517      8604.0888    
     24100   285.70549      1076.1082      8561.2576    
     24200   296.9739      -1322.9236      8570.1696    
     24300   290.49434      1176.5705      8562.1232    
     24400   292.88616     -599.82658      8593.0701    
     24500   298.57368     -1777.8711      8607.5462    
     24600   290.48423     -924.63025      8559.5199    
     24700   291.75791      1859.6341      8465.3968    
     24800   299.60468      3166.2872      8398.4156    
     24900   298.45247      3095.6621      8389.3204    
     25000   291.28672      300.01545      8428.6358    
     25100   297.02939     -1653.1803      8450.4865    
     25200   301.3105      -2660.2838      8428.8891    
     25300   291.39668     -2193.8066      8365.1423    
     25400   296.58932      117.06125      8302.8459    
     25500   287.48291      701.10234      8311.8693    
     25600   276.48579      624.22302      8370.3105    
     25700   284.03012      1928.3254      8391.2235    
     25800   298.71789      1991.0096      8420.6807    
     25900   304.73598      1522.9132      8488.2065    
     26000   299.55651     -946.29434      8555.4912    
     26100   295.91262     -923.24173      8550.0621    
     26200   284.44829     -1408.4097      8495.1362    
     26300   296.57365      100.17919      8421.5595    
     26400   299.74185      406.38231      8399.2376    
     26500   282.86356      254.80883      8443.2665    
     26600   280.43192     -411.44816      8523.6192    
     26700   296.66305     -1458.2807      8560.3584    
     26800   293.52981     -0.35691448     8516.1503    
     26900   300.92888     -149.70388      8479.9758    
     27000   290.18568     -331.46948      8481.0828    
     27100   291.74039     -1103.4958      8507.4114    
     27200   287.63906     -448.12784      8510.5401    
     27300   287.80627      2074.2344      8483.119     
     27400   305.28607      1482.0533      8480.924     
     27500   292.0703       2175.5813      8486.2287    
     27600   309.53002      2282.7963      8517.2971    
     27700   308.46946     -1007.2494      8592.6914    
     27800   293.45468     -2634.3467      8643.8375    
     27900   292.24382     -1865.2971      8634.2231    
     28000   292.07499     -583.64982      8609.0039    
     28100   293.99893      283.84907      8612.3301    
     28200   275.07264      948.64918      8616.4136    
     28300   285.42189      873.47478      8608.103     
     28400   296.20512      2765.0078      8588.2285    
     28500   298.56318      1855.7937      8616.325     
     28600   279.97245      255.43989      8639.0592    
     28700   302.05828      967.5677       8604.0094    
     28800   298.92345      155.90023      8567.2642    
     28900   288.16715     -2141.7424      8551.7662    
     29000   286.1978      -1090.432       8524.063     
     29100   299.34656     -1307.7343      8529.8915    
     29200   305.15377      33.094291      8532.0485    
     29300   321.42147     -94.968098      8536.5537    
     29400   293.69366      320.00797      8540.1967    
     29500   291.91672     -400.10222      8489.3641    
     29600   296.31339      2474.2059      8410.0505    
     29700   279.4171      -960.59545      8425.6896    
     29800   298.55063     -2567.2724      8463.7851    
     29900   295.6112      -904.41599      8472.6539    
     30000   293.30344     -360.07081      8483.5669    
     30100   286.34624      1152.7949      8503.4403    
     30200   295.26551     -1070.9321      8551.812     
     30300   284.19673      884.56478      8557.743     
     30400   297.69196      1174.2472      8524.9727    
     30500   293.11156      2934.0077      8506.0961    
     30600   294.09575      230.5697       8536.4458    
     30700   286.36775      643.20997      8516.5186    
     30800   296.10975      98.041502      8476.926     
     30900   303.56316      435.35342      8449.0252    
     31000   288.21728     -1935.3433      8452.3191    
     31100   283.56073     -788.194        8433.6576    
     31200   291.24673     -1792.7823      8419.0572    
     31300   294.5414       1601.9293      8382.452     
     31400   303.2066       685.45347      8424.5328    
     31500   281.26429     -526.12977      8461.6297    
     31600   286.78875      637.11624      8426.0627    
     31700   294.31621      1804.2358      8374.7567    
     31800   294.81847      1081.1583      8399.9823    
     31900   295.56023     -1158.8625      8518.5462    
     32000   288.20755     -2127.5607      8618.9588    
     32100   309.95144     -1064.781       8626.4521    
     32200   318.40404      688.61647      8586.167     
     32300   299.36527      1481.269       8550.8444    
     32400   299.80419     -60.546595      8522.7968    
     32500   284.44572      1759.4066      8446.0449    
     32600   306.84703      2093.5873      8399.4477    
     32700   301.89362      1013.8642      8410.7324    
     32800   292.59207     -3434.4664      8470.7513    
     32900   279.96111     -1614.6825      8463.2259    
     33000   291.94068     -1142.306       8439.6799    
     33100   290.91863     -152.15031      8434.9199    
     33200   289.39093     -1298.2231      8459.1075    
     33300   297.82903     -1268.1635      8446.497     
     33400   287.05015      2280.3469      8373.3342    
     33500   274.95637      2939.1146      8351.955     
     33600   274.92001      507.81849      8416.1517    
     33700   273.13869      543.64485      8474.7796    
     33800   317.82672     -284.33863      8519.9797    
     33900   286.60304     -1629.651       8559.2478    
     34000   292.73013     -1537.939       8547.7011    
     34100   310.53231      499.41908      8482.4069    
     34200   293.46256     -1104.9756      8475.5414    
     34300   284.14156     -474.62569      8461.7231    
     34400   305.96557     -780.91673      8405.263     
     34500   299.10793      3190.0064      8340.9728    
     34600   298.92375      2466.269       8366.5383    
     34700   314.71699      1356.0164      8428.1684    
     34800   305.83872     -648.48808      8455.5621    
     34900   294.45644     -54.921607      8420.0184    
     35000   291.23074     -2482.6702      8398.5565    
     35100   295.30243     -2333.0767      8410.2109    
     35200   290.02745     -3237.6847      8443.1981    
     35300   283.53794     -637.52558      8439.4673    
     35400   306.471        1415.1009      8442.3051    
     35500   300.39589      1571.1457      8469.4179    
     35600   298.64549      2512.919       8476.9206    
     35700   281.67468      1051.3563      8461.2426    
     35800   293.91549      972.22942      8413.2182    
     35900   291.12686      441.98383      8398.614     
     36000   293.46759     -1500.9352      8418.3634    
     36100   290.13503     -1932.8792      8409.2833    
     36200   301.79478     -653.08414      8422.4064    
     36300   292.11632     -808.46204      8488.4069    
     36400   290.91629     -1673.8136      8549.1224    
     36500   297.33715      616.81913      8539.8634    
     36600   298.02145      1943.8063      8504.3387    
     36700   304.64962      1286.9379      8493.6993    
     36800   288.78172      8.7193588      8456.5306    
     36900   279.60602      870.20323      8372.7372    
     37000   306.98324     -82.55372       8316.3611    
     37100   296.98741      8.9683724      8300.0108    
     37200   286.35845     -696.90104      8353.4119    
     37300   285.50948     -1032.3472      8446.2824    
     37400   288.65643     -1487.5786      8499.5812    
     37500   300.7835       52.835748      8488.5955    
     37600   288.3          1495.9683      8451.7651    
     37700   284.76365      2680.7568      8427.0609    
     37800   287.24625      2124.0247      8439.0516    
     37900   295.25222      1187.6302      8489.311     
     38000   293.30762     -168.62268      8532.2629    
     38100   293.25316     -1659.6754      8544.6194    
     38200   303.11385     -3165.9426      8545.1205    
     38300   301.87458      388.98405      8490.6672    
     38400   297.6561       0.88423468     8502.6909    
     38500   278.86093     -2335.507       8594.9515    
     38600   284.30166     -628.77427      8627.136     
     38700   302.4227       1898.6064      8599.1001    
     38800   294.60565      3622.5469      8594.5224    
     38900   284.80022      3434.6886      8639.5996    
     39000   276.10325     -1542.7405      8712.9557    
     39100   292.03774     -1387.6365      8663.5933    
     39200   301.06587      920.88482      8517.9047    
     39300   301.31073      1440.6348      8450.0837    
     39400   281.22305     -1418.7616      8510.1642    
     39500   292.29708     -1697.2627      8579.009     
     39600   284           -81.703566      8594.0914    
     39700   304.11341      293.12044      8586.0435    
     39800   303.3721       1473.2502      8551.2156    
     39900   302.01603      775.78854      8541.4948    
     40000   285.27627      1111.1127      8576.1381    
     40100   303.0915      -447.50658      8627.5124    
     40200   293.50167     -1782.033       8625.7605    
     40300   303.34552     -484.66312      8565.2266    
     40400   304.87741     -312.30025      8555.7212    
     40500   290.14902     -2220.7424      8583.543     
     40600   289.49136     -372.97889      8550.0943    
     40700   285.6348       1859.6039      8500.5564    
     40800   294.34571      881.7837       8506.3546    
     40900   299.101       -443.78567      8531.4481    
     41000   292.12812      258.30537      8537.3737    
     41100   297.27505      736.36044      8563.3961    
     41200   290.39964     -1185.1798      8630.5983    
     41300   285.45282     -1054.874       8667.0955    
     41400   300.60388     -1434.2752      8643.8656    
     41500   295.7187       142.12106      8613.5596    
     41600   295.81739      560.89536      8652.8407    
     41700   292.80567     -967.65975      8746.8678    
     41800   290.74501     -1182.3982      8808.1545    
     41900   291.27429      12.809748      8788.0552    
     42000   295.06666      1426.4705      8723.3993    
     42100   304.60431      1852.0415      8697.1861    
     42200   310.87699     -425.15966      8774.1648    
     42300   307.094       -2375.5787      8876.6999    
     42400   294.54728     -2856.0578      8901.3834    
     42500   291.77613      117.07996      8779.4989    
     42600   292.62568      2451.2297      8637.9979    
     42700   298.82576      2036.5672      8607.1574    
     42800   287.33791      1849.5439      8651.7468    
     42900   306.68696      426.27189      8707.2361    
     43000   302.81504     -97.585538      8711.4797    
     43100   284.88193     -1173.2722      8697.138     
     43200   288.05031     -1585.1805      8678.2843    
     43300   293.4461      -1587.6207      8655.4081    
     43400   306.09299     -594.13738      8694.5149    
     43500   276.9952      -3024.9821      8794.1487    
     43600   293.64563     -625.59988      8805.6165    
     43700   307.29516      1992.9704      8729.1021    
     43800   286.02214      4633.1782      8659.0641    
     43900   286.35154      1294.3353      8703.4762    
     44000   285.99005     -1757.9733      8770.5866    
     44100   289.62274     -2921.4742      8764.5485    
     44200   307.79984     -1401.3606      8693.6597    
     44300   286.20939     -89.260922      8635.0839    
     44400   276.58589      380.66676      8632.742     
     44500   288.81334     -1427.0344      8659.6217    
     44600   284.87839      1070.578       8647.0046    
     44700   306.11599      2430.0431      8628.2926    
     44800   296.85036      2241.0991      8660.8626    
     44900   289.03657      976.59891      8730.248     
     45000   302.96767     -272.20651      8799.2589    
     45100   296.24028     -2535.3361      8864.9653    
     45200   293.65641     -3662.7414      8870.8883    
     45300   298.99548     -1487.9666      8777.9366    
     45400   293.49884     -562.26044      8674.3399    
     45500   292.66792      1205.389       8626.563     
     45600   271.77355      1625.9796      8643.6306    
     45700   298.7733       1534.44        8686.8349    
     45800   292.29935      49.220822      8732.2693    
     45900   296.65691     -348.98261      8700.7912    
     46000   303.90067      1466.9721      8635.8073    
     46100   296.07496     -2647.569       8663.6154    
     46200   285.2668      -4261.0438      8688.4966    
     46300   296.03841     -1413.4885      8646.1822    
     46400   288.58979     -787.96211      8624.5422    
     46500   289.87823      97.844567      8633.2152    
     46600   279.9868       51.615062      8646.8357    
     46700   287.79863      1355.8874      8642.8496    
     46800   298.95199      1907.2463      8651.3123    
     46900   306.59775      695.50246      8675.569     
     47000   290.96795      110.06703      8704.3668    
     47100   281.09253     -60.234698      8756.6022    
     47200   287.13727     -1875.5636      8839.9915    
     47300   299.38777     -2206.8813      8887.2496    
     47400   291.79312     -1615.5975      8889.2378    
     47500   281.04489     -1463.98        8840.1842    
     47600   291.25496      1215.6677      8735.7144    
     47700   294.1492       2065.7554      8707.2485    
     47800   302.54493      231.98274      8751.5629    
     47900   296.65263     -190.50419      8764.712     
     48000   290.04921      449.42235      8735.405     
     48100   291.89372      387.91837      8696.7789    
     48200   284.95929      117.70636      8662.032     
     48300   285.71077     -688.47584      8629.4335    
     48400   294.24823     -520.74373      8626.6307    
     48500   294.55697     -2862.8317      8673.7798    
     48600   307.39659     -758.02767      8657.747     
     48700   280.6088       840.60424      8614.5087    
     48800   289.69099      1541.129       8598.3031    
     48900   287.42411      2114.5745      8600.6749    
     49000   291.71073      839.35711      8649.2384    
     49100   295.58476      1714.7407      8709.6958    
     49200   288.76093     -1297.7425      8796.623     
     49300   294.90063     -1733.819       8827.373     
     49400   287.67268     -620.86227      8786.7096    
     49500   291.85743      1006.6137      8735.5795    
     49600   282.99424     -1376.0619      8732.2376    
     49700   297.68344     -1737.3593      8692.6156    
     49800   302.40128      1695.2135      8573.3375    
     49900   295.27996      1628.7706      8514.2779    
     50000   288.85234      186.09505      8535.2805    
     50100   284.9117       647.79221      8555.8711    
     50200   291.32827      276.75946      8588.0895    
     50300   293.47489     -714.75726      8595.3863    
     50400   303.13486      665.19253      8576.1055    
     50500   298.64348     -802.25516      8575.1739    
     50600   287.84666      517.9271       8539.8997    
     50700   291.88992     -579.72595      8534.3499    
     50800   286.5634      -786.37843      8537.5515    
     50900   280.31348      1011.2413      8546.8267    
     51000   297.61059     -1588.5931      8600.1961    
     51100   298.00579     -25.357174      8598.4017    
     51200   298.81996      497.53524      8589.6865    
     51300   288.67783      521.1924       8571.8538    
     51400   299.07638      47.330918      8518.9522    
     51500   286.02834      315.5247       8422.9564    
     51600   300.0817       81.278493      8333.7764    
     51700   292.62793     -807.42512      8285.3778    
     51800   293.72127     -1057.355       8241.4633    
     51900   293.54158      69.156067      8232.8872    
     52000   284.68439      486.54271      8283.8066    
     52100   281.88922     -912.22445      8377.4579    
     52200   296.60983     -38.155836      8418.2643    
     52300   295.19939      1394.0635      8412.1564    
     52400   284.30361      2246.7594      8411.3227    
     52500   285.60576      8.6391833      8459.4307    
     52600   295.93242      213.88362      8498.8481    
     52700   299.73424      182.67039      8559.6135    
     52800   300.84613     -2108.3656      8680.8033    
     52900   295.59249     -2125.0533      8741.3403    
     53000   278.09055      146.96421      8705.7574    
     53100   292.63035      401.89555      8682.7145    
     53200   293.60785      1669.4772      8687.0363    
     53300   301.20133      947.11952      8730.5425    
     53400   300.45482     -511.86305      8774.2049    
     53500   302.43849     -958.92623      8735.9634    
     53600   304.61877      1825.8281      8636.7866    
     53700   287.26286      2135.2196      8570.7406    
     53800   278.38122     -165.80901      8568.6068    
     53900   290.74045     -1573.1203      8548.6531    
     54000   300.94191      892.60459      8480.9403    
     54100   301.06841      470.20974      8480.9682    
     54200   288.28562     -884.50174      8539.6731    
     54300   290.55103     -1762.3115      8548.4913    
     54400   294.34903      1181.9829      8466.5893    
     54500   307.09986      4494.1838      8414.3581    
     54600   284.88056      1762.2395      8461.7381    
     54700   289.48072      1279.2801      8508.6749    
     54800   288.70491     -992.56603      8516.8338    
     54900   295.18408     -255.66849      8471.9346    
     55000   299.17125     -25.759261      8442.2102    
     55100   305.15011     -1673.2287      8482.4092    
     55200   289.29309     -2377.3237      8542.4524    
     55300   287.18181     -1579.2734      8553.3117    
     55400   291.38116      947.25466      8491.4331    
     55500   295.63634      2534.7425      8418.0478    
     55600   309.71611      3784.7212      8377.3348    
     55700   295.2762       2311.9996      8425.2799    
     55800   289.21497     -926.0874       8541.1597    
     55900   280.07537     -1925.7714      8570.0103    
     56000   294.33686     -554.38         8505.7723    
     56100   290.77211     -350.6081       8471.5677    
     56200   292.04423     -1447.0644      8488.719     
     56300   281.86457     -1186.32        8520.2285    
     56400   298.69517     -489.30665      8542.2985    
     56500   307.28915      1212.721       8557.5523    
     56600   285.426        704.03469      8585.7938    
     56700   281.30471      1353.7127      8578.1459    
     56800   295.71058      2197.7061      8529.6147    
     56900   298.17746      1357.2151      8525.3005    
     57000   301.19308     -1888.1792      8548.3343    
     57100   297.64706     -645.33243      8500.171     
     57200   286.24691     -1669.2727      8446.2466    
     57300   292.94956     -1754.244       8390.2808    
     57400   298.19556      185.37509      8333.626     
     57500   291.47649      273.72729      8307.3955    
     57600   294.64943      126.07575      8316.0532    
     57700   279.00054      425.97021      8328.6478    
     57800   299.85019      257.0841       8337.1939    
     57900   280.81777      1274.1618      8337.1302    
     58000   292.7927       446.7245       8324.7609    
     58100   297.07039      1214.879       8291.864     
     58200   299.80945      958.0596       8307.0774    
     58300   277.1868      -338.94939      8378.5606    
     58400   285.94313     -2255.8764      8423.7986    
     58500   289.64554     -168.09649      8389.7249    
     58600   295.87803     -10.262189      8372.0336    
     58700   294.84926     -54.100231      8369.9388    
     58800   277.01516      756.02103      8365.4523    
     58900   297.64101      607.13839      8375.9518    
     59000   304.04896      553.31274      8390.0892    
     59100   292.76487     -1028.7469      8431.6893    
     59200   289.13404     -196.44944      8447.5372    
     59300   301.92898      955.06989      8429.7741    
     59400   291.74102      570.93781      8419.8541    
     59500   300.58342      1191.891       8392.2461    
     59600   303.72578      1575.2917      8377.1245    
     59700   296.0521      -1266.3981      8403.8099    
     59800   298.39188     -2126.5018      8410.0433    
     59900   293.18401     -1436.9818      8369.8017    
     60000   282.41276     -580.08718      8320.555     
     60100   282.5491      -920.48095      8273.0119    
     60200   298.74402      850.80996      8210.2058    
     60300   311.2249       2710.4504      8180.5862    
     60400   289.35599      1375.3315      8210.7646    
     60500   284.15484      1206.3141      8263.3791    
     60600   286.12704     -363.1141       8326.5666    
     60700   290.5621      -327.08553      8366.8448    
     60800   295.54898     -2104.9337      8366.6703    
     60900   287.43328      160.34837      8322.6473    
     61000   304.31533     -207.83391      8330.1223    
     61100   301.82828      743.38223      8382.8321    
     61200   298.11327      2409.4582      8439.0141    
     61300   293.33819      1441.9261      8503.3167    
     61400   285.57324      530.81722      8560.1702    
     61500   284.92933      598.1474       8580.3627    
     61600   292.28758     -55.385797      8581.2909    
     61700   312.73743      649.96672      8602.5707    
     61800   297.21249     -2100.1643      8668.0105    
     61900   289.0589      -3251.8507      8670.2832    
     62000   293.7305       292.71106      8582.0064    
     62100   293.94856      825.34072      8555.2827    
     62200   297.50393     -480.82152      8596.8704    
     62300   291.73315     -565.41202      8589.6331    
     62400   299.80418      654.01815      8518.6904    
     62500   291.58093      1977.5496      8430.0579    
     62600   299.30973      1242.8514      8373.4047    
     62700   287.38392      493.63247      8355.6705    
     62800   273.41565     -770.41835      8375.443     
     62900   301.84255     -2323.8832      8411.2351    
     63000   303.97744     -1264.6791      8429.8203    
     63100   295.80404     -751.86362      8441.2235    
     63200   294.50133     -778.02397      8447.0223    
     63300   292.72204      727.47924      8416.832     
     63400   313.81974      2365.9015      8388.2101    
     63500   315.01126      1288.5502      8411.1216    
     63600   281.69054      175.06343      8435.7462    
     63700   281.74548      17.657615      8462.1831    
     63800   302.94125     -2414.476       8495.6304    
     63900   294.34203     -1641.3652      8467.2217    
     64000   316.65087     -652.51229      8431.7814    
     64100   287.29029      388.30718      8429.9878    
     64200   296.42596     -184.8467       8460.869     
     64300   285.69114      1070.548       8491.4694    
     64400   300.07847     -929.103        8569.7714    
     64500   283.26374     -406.42532      8625.7726    
     64600   290.50699     -1666.7788      8640.7547    
     64700   288.97096     -2340.7093      8567.3662    
     64800   293.46064      2117.9369      8422.7886    
     64900   288.64947      3080.8638      8410.2741    
     65000   300.40454     -61.268156      8549.5915    
     65100   295.04817     -1571.1298      8656.9573    
     65200   305.50294      700.87273      8649.3205    
     65300   317.81125     -97.423436      8633.1444    
     65400   309.53333     -1046.3878      8609.348     
     65500   298.61311      1188.8265      8568.0025    
     65600   289.26936     -892.44487      8597.8824    
     65700   287.12536     -2203.8183      8648.2362    
     65800   311.35824     -228.19665      8639.252     
     65900   281.58004      774.29434      8602.9261    
     66000   304.5355       441.62178      8556.0828    
     66100   297.9718       2756.2916      8498.5499    
     66200   291.98057      1842.0689      8512.9652    
     66300   292.22765     -1471.8464      8559.813     
     66400   292.31621     -449.29492      8537.7544    
     66500   298.16611      136.57257      8509.406     
     66600   300.37985     -1096.8235      8507.275     
     66700   306.51418      307.02964      8521.1925    
     66800   282.75037     -47.46892       8581.885     
     66900   287.12933      957.47783      8652.9388    
     67000   293.16023      372.09226      8709.7885    
     67100   302.91446      186.96975      8687.0673    
     67200   288.82895      2741.3384      8621.5484    
     67300   295.61407      865.48539      8632.9364    
     67400   291.67519     -1058.5197      8676.4047    
     67500   283.73552     -2704.1513      8669.5513    
     67600   303.10202     -2685.4193      8578.8563    
     67700   291.15583      332.23221      8477.926     
     67800   296.11088      522.66938      8460.4639    
     67900   298.63616      1072.9936      8487.8265    
     68000   286.25462      1360.1101      8544.16      
     68100   292.0016       321.99571      8594.6689    
     68200   305.13248      442.99441      8599.8557    
     68300   293.56277     -521.43299      8599.6837    
     68400   301.73302     -2624.2457      8563.7608    
     68500   321.26018     -97.774354      8475.1845    
     68600   300.38328      418.05918      8423.4958    
     68700   289.8378       124.73666      8401.0638    
     68800   285.18828     -352.21086      8394.3937    
     68900   289.9815       84.440529      8398.7663    
     69000   299.70651      879.0747       8420.8512    
     69100   289.32695      253.67371      8489.8913    
     69200   308.22529     -1961.3954      8582.7686    
     69300   303.20597      77.728741      8607.7302    
     69400   295.70273      32.11221       8596.7523    
     69500   295.3485       1227.4192      8563.8862    
     69600   291.74924     -1700.7917      8558.8647    
     69700   291.12045     -1051.6061      8529.5547    
     69800   291.60075     -1244.9983      8487.5019    
     69900   298.76943      983.26869      8454.1489    
     70000   294.65826     -978.72915      8474.4969    
     70100   286.8803      -116.69559      8481.6502    
     70200   288.1506       131.24124      8483.4971    
     70300   293.52859      1423.3493      8460.4111    
     70400   293.92584      2060.2801      8425.457     
     70500   295.19582      1478.462       8440.8689    
     70600   293.46731     -1267.3329      8480.9236    
     70700   299.34843     -2327.7256      8484.7665    
     70800   294.59768     -1321.4993      8441.2732    
     70900   289.21232      1047.4372      8374.2922    
     71000   290.19984      773.45359      8384.4977    
     71100   297.60163     -136.11855      8466.8545    
     71200   302.9101      -1299.9681      8529.2446    
     71300   302.48206      308.65665      8516.875     
     71400   293.13903      1161.9955      8467.2217    
     71500   292.00196      999.28513      8447.7098    
     71600   288.21862      1012.5937      8445.1066    
     71700   293.03667      1526.8848      8440.5409    
     71800   285.62711      85.826903      8474.0634    
     71900   287.50845     -1521.4927      8529.9081    
     72000   296.36708     -3635.654       8548.3269    
     72100   293.34191     -1567.0464      8449.4371    
     72200   297.25544      2809.0734      8348.5352    
     72300   282.2977       1406.5804      8385.4206    
     72400   281.23046     -44.384812      8472.1073    
     72500   293.05029      144.94026      8518.9416    
     72600   294.20675      1046.2506      8534.4702    
     72700   292.13229      675.87392      8527.6364    
     72800   286.36795     -603.95348      8526.3702    
     72900   291.79889     -1396.8889      8537.5322    
     73000   279.53776     -216.75912      8543.4029    
     73100   298.15275     -332.05367      8553.7121    
     73200   298.18478      774.43496      8563.1442    
     73300   294.89753      725.30546      8578.8045    
     73400   304.23869      1.6540764      8583.4484    
     73500   291.88654     -1172.5311      8569.3098    
     73600   293.08184      79.824855      8507.1592    
     73700   283.31365     -70.709547      8458.8127    
     73800   284.58026     -450.97665      8437.615     
     73900   288.62234      1078.0421      8419.563     
     74000   292.21594      882.19883      8457.0782    
     74100   286.76557     -1006.9793      8526.2601    
     74200   298.84582     -1585.2686      8521.8911    
     74300   306.0745       2066.6724      8440.2956    
     74400   297.77051      1100.3638      8434.605     
     74500   270.47678      7.7985337      8492.7682    
     74600   287.76794     -367.56732      8564.0869    
     74700   283.82548     -317.11042      8603.961     
     74800   297.08558      1587.0946      8600.1222    
     74900   294.96825      1878.4436      8606.52      
     75000   297.9818       469.13446      8597.8748    
     75100   325.16496     -331.57942      8561.2739    
     75200   298.09856     -1242.4112      8512.5975    
     75300   285.73381     -1049.8117      8469.7962    
     75400   291.1915      -901.48565      8446.0838    
     75500   300.73635      116.67678      8452.339     
     75600   287.57345      119.30398      8501.3192    
     75700   286.21091     -894.88607      8572.46      
     75800   291.59645     -597.97218      8603.398     
     75900   292.39902      994.77731      8564.7163    
     76000   298.96851      1980.027       8499.5015    
     76100   285.63415      1486.5063      8466.524     
     76200   287.90219     -150.78254      8476.9548    
     76300   286.96856      287.08107      8475.735     
     76400   288.58695     -598.04482      8493.0499    
     76500   285.12774     -1173.8261      8513.5457    
     76600   288.51083     -1160.1981      8496.3787    
     76700   298.70462     -1448.2025      8445.0112    
     76800   292.72493     -492.9285       8359.0516    
     76900   288.40709      1230.9054      8274.6238    
     77000   299.47731      2281.5001      8253.5514    
     77100   297.45261     -383.38111      8303.5112    
     77200   297.1883       146.04237      8342.2107    
     77300   286.56343      419.46248      8379.1612    
     77400   279.46434     -1065.6343      8432.5904    
     77500   294.67206     -169.59264      8475.1465    
     77600   294.10752     -1132.1615      8527.7132    
     77700   302.27916     -788.0249       8553.0479    
     77800   294.09565     -83.169062      8547.0705    
     77900   300.5113       161.63206      8534.5631    
     78000   288.11251     -1084.5435      8524.1886    
     78100   288.43417      488.45183      8485.6004    
     78200   287.42048      1030.0817      8466.4394    
     78300   301.73162      1231.8392      8489.47      
     78400   295.92027      1397.7234      8536.9893    
     78500   290.2165      -1113.4667      8621.8548    
     78600   296.43671     -1597.9799      8654.3506    
     78700   287.18138      816.53303      8631.0708    
     78800   289.95741     -237.64723      8619.2694    
     78900   288.98413     -292.28962      8578.1646    
     79000   283.00809      47.973725      8507.0777    
     79100   287.88061      1178.033       8462.4521    
     79200   294.30586     -526.32853      8501.1297    
     79300   296.55738     -2075.7298      8543.8814    
     79400   292.11369     -1460.7092      8561.9791    
     79500   285.82339     -986.27914      8542.2088    
     79600   292.42368      1968.0111      8483.7617    
     79700   294.22822      2047.4548      8507.9892    
     79800   295.14094     -258.26432      8608.6736    
     79900   300.09103     -1517.5643      8681.1538    
     80000   293.01498     -214.55139      8675.4195    
     80100   308.97524     -1312.3532      8636.8153    
     80200   292.62669      149.46525      8577.9788    
     80300   294.35792      370.5076       8550.1651    
     80400   288.99547     -1066.3407      8539.0922    
     80500   289.47669      1190.7453      8494.667     
     80600   296.93168      1548.3813      8463.7111    
     80700   296.64425      1701.398       8480.0134    
     80800   296.05303      860.18333      8517.4389    
     80900   283.0273       557.34712      8519.1225    
     81000   307.62877      921.99547      8512.8715    
     81100   305.36328      653.43404      8516.925     
     81200   296.80286     -933.7574       8543.8183    
     81300   294.76435     -1298.7798      8559.996     
     81400   287.67406     -1467.1473      8547.2199    
     81500   290.48009     -207.21139      8520.8634    
     81600   278.1114      -1206.8494      8491.7992    
     81700   300.14011      2232.4894      8427.4954    
     81800   314.24477      2.8325136      8423.6247    
     81900   290.36061     -372.98745      8456.8163    
     82000   295.43467     -335.83735      8456.4965    
     82100   287.99517      830.19566      8417.5195    
     82200   303.90739      670.51734      8425.2695    
     82300   305.56327     -952.65243      8488.6836    
     82400   288.90302     -2593.0436      8527.723     
     82500   294.33086     -196.68426      8480.3395    
     82600   295.3514       1367.0457      8435.775     
     82700   296.51129     -238.69877      8480.6548    
     82800   286.79798     -1864.5648      8565.9776    
     82900   299.60542     -1862.6863      8605.7068    
     83000   298.70045      841.76868      8593.2455    
     83100   291.55143      786.18511      8617.3673    
     83200   295.18658      137.71654      8651.0512    
     83300   291.88789     -824.49498      8645.7967    
     83400   288.13267      217.04212      8557.8155    
     83500   300.38909      1807.9676      8440.8864    
     83600   298.06148      573.21079      8405.9297    
     83700   293.20577     -700.93328      8421.686     
     83800   291.66207      157.47674      8435.849     
     83900   287.48489      177.42356      8456.9052    
     84000   283.79546      1540.4647      8442.6589    
     84100   288.74764      3450.6085      8413.6356    
     84200   307.54906      1451.0449      8424.6618    
     84300   289.40715     -147.16974      8438.6727    
     84400   281.38186     -208.52434      8444.8492    
     84500   295.63149     -310.87529      8448.744     
     84600   290.4866       3.5185756      8485.8356    
     84700   280.12462     -1719.9789      8579.6074    
     84800   295.69203     -3172.0763      8645.6118    
     84900   301.09477      345.54278      8610.7782    
     85000   295.9652       591.30462      8571.3513    
     85100   304.78798      627.75048      8578.6626    
     85200   283.33891     -280.71723      8587.2764    
     85300   284.26438      836.60813      8539.8989    
     85400   295.44557      1038.9866      8481.6512    
     85500   303.25521      2232.3327      8476.4849    
     85600   298.74377     -1689.2793      8568.8342    
     85700   273.10095     -2309.0879      8633.2977    
     85800   299.82074      1248.4643      8588.1496    
     85900   305.69942      1235.3578      8566.5081    
     86000   290.50141     -681.33482      8630.957     
     86100   291.28398     -1772.2143      8702.7973    
     86200   291.28215     -1086.0237      8717.0723    
     86300   279.4735      -2114.1922      8695.204     
     86400   284.7997      -1567.1061      8657.1856    
     86500   300.53862     -397.9045       8583.4727    
     86600   299.90733      2836.8065      8527.7298    
     86700   293.09564      196.89651      8604.7277    
     86800   281.53549     -178.28158      8661.4639    
     86900   299.14179      1013.9174      8630.452     
     87000   299.39965      1162.869       8590.2991    
     87100   296.5773       1097.9638      8591.225     
     87200   290.68965      915.68888      8627.1664    
     87300   275.65778     -2978.5229      8706.2046    
     87400   290.21801     -732.99464      8701.1699    
     87500   305.80207      73.965297      8672.7945    
     87600   296.99225     -540.30766      8669.9568    
     87700   287.85436      417.6479       8678.8599    
     87800   295.93283     -605.19121      8702.4074    
     87900   299.23245     -123.88806      8691.8186    
     88000   298.01287      730.43952      8652.7643    
     88100   287.5715      -303.22693      8602.8742    
     88200   279.38003      402.51018      8529.7241    
     88300   286.25227     -17.070635      8495.5072    
     88400   290.57283     -886.42581      8501.4284    
     88500   271.41671     -1897.848       8498.0685    
     88600   298.83814      835.24556      8433.8156    
     88700   304.55079      2048.0698      8397.6033    
     88800   291.26278      367.81653      8432.1661    
     88900   296.9388       142.57185      8472.5119    
     89000   292.73457     -659.15707      8465.3418    
     89100   302.93521      964.83835      8412.8233    
     89200   302.79372      433.4842       8413.948     
     89300   285.92585      4.1045034      8489.2761    
     89400   276.44859     -2247.1512      8580.4741    
     89500   298.80628     -36.792883      8591.4694    
     89600   300.49879     -1112.7073      8590.8202    
     89700   290.5079      -486.11567      8563.6766    
     89800   276.79207     -659.02413      8527.8115    
     89900   290.21167     -283.8669       8498.0659    
     90000   287.38552      392.46283      8497.8277    
     90100   287.43797     -865.32872      8562.0155    
     90200   288.12952     -613.73169      8636.2573    
     90300   302.01155     -638.84758      8692.9284    
     90400   289.87345      465.16322      8730.6371    
     90500   291.90848     -318.17471      8788.0144    
     90600   281.89664      292.20568      8823.6748    
     90700   291.18334     -1106.3071      8817.6286    
     90800   299.02123      150.55301      8717.449     
     90900   303.38521      1594.7122      8595.059     
     91000   289.5566      -213.08526      8555.8045    
     91100   287.29749     -1662.0317      8560.6721    
     91200   293.50107      91.611369      8567.3181    
     91300   295.88547     -39.009939      8615.795     
     91400   290.08991     -889.86611      8700.7467    
     91500   305.14228     -1505.5947      8729.5321    
     91600   288.59294      1399.8998      8646.136     
     91700   281.88694      1606.6948      8588.1055    
     91800   291.68783     -591.65234      8594.321     
     91900   291.93364     -1749.3459      8619.5348    
     92000   300.51404     -2887.0907      8663.3155    
     92100   281.5011      -2494.5173      8667.6047    
     92200   294.9792      -733.20156      8612.9425    
     92300   311.24188      791.24799      8564.5871    
     92400   295.14544      1478.3569      8552.8978    
     92500   292.3314       2030.5887      8545.4947    
     92600   305.91552      1955.6152      8538.4583    
     92700   280.00471      50.580638      8539.889     
     92800   289.18968     -879.9904       8509.4273    
     92900   292.63487     -779.33907      8431.4926    
     93000   291.52947     -1775.1486      8377.8714    
     93100   292.96146     -1541.7756      8355.9684    
     93200   284.0475      -893.34989      8373.6368    
     93300   288.77968     -1422.5681      8420.9121    
     93400   291.19798      872.82603      8414.8673    
     93500   287.07923      3070.5852      8363.5774    
     93600   299.16673      4118.2429      8301.7151    
     93700   281.75582      6071.959       8259.7684    
     93800   285.68854      1401.5441      8311.1666    
     93900   300.99852      632.72556      8353.9542    
     94000   298.24519     -1867.9342      8396.2521    
     94100   300.46323     -3535.2648      8409.8671    
     94200   279.62492     -2186.8072      8371.4281    
     94300   282.02513     -1532.3875      8328.428     
     94400   308.787       -1753.457       8312         
     94500   294.18092      126.64108      8294.3073    
     94600   302.46525      470.79469      8296.4269    
     94700   289.37488      521.39398      8290.4345    
     94800   295.53276      535.3879       8244.1389    
     94900   282.10811      3732.0384      8180.4182    
     95000   301.31292      1656.2668      8217.7755    
     95100   295.75858     -153.3342       8290.6716    
     95200   287.86757     -1161.5042      8348.0907    
     95300   310.06772     -1205.5562      8364.7577    
     95400   312.15913     -1264.2454      8358.908     
     95500   293.77711     -2640.8274      8361.9993    
     95600   298.94792     -622.31496      8329.4746    
     95700   294.57234     -58.445263      8284.0449    
     95800   286.41644      479.73111      8222.9678    
     95900   289.21525      3125.3639      8150.1001    
     96000   305.5973       3061.5696      8163.956     
     96100   299.1986       227.4039       8298.3297    
     96200   297.26424     -3610.4614      8419.9379    
     96300   287.28406     -961.22155      8397.8145    
     96400   291.09796     -198.60835      8332.5636    
     96500   291.77292      90.952704      8313.087     
     96600   309.24896      930.06618      8357.7525    
     96700   296.7875      -1219.0414      8432.2751    
     96800   297.50787     -1432.7149      8429.821     
     96900   294.71602      1332.9924      8349.6475    
     97000   281.79576      1676.9086      8297.949     
     97100   300.24065      744.83214      8287.5319    
     97200   304.84549     -1589.8512      8280.5593    
     97300   302.16471      1343.0945      8254.8553    
     97400   291.48716     -1207.6026      8322.0624    
     97500   279.83394     -1282.8371      8401.0973    
     97600   281.54857     -555.91663      8441.3616    
     97700   300.37587      273.93105      8480.4983    
     97800   297.59113      1185.1593      8515.8942    
     97900   289.77428      2092.9327      8560.7129    
     98000   280.12066      918.40262      8601.8673    
     98100   292.0475       1106.3613      8629.2885    
     98200   290.32225      432.47393      8668.3393    
     98300   293.31357     -1423.2026      8707.1732    
     98400   299.78548     -287.36034      8703.8359    
     98500   290.79201     -696.9389       8707.6793    
     98600   295.80946     -2076.054       8689.676     
     98700   282.69724     -546.10471      8630.5667    
     98800   293.60447      315.51382      8606.9749    
     98900   299.89279      65.160197      8622.4154    
     99000   308.14033     -648.25357      8654.9615    
     99100   302.94684     -455.61011      8636.0675    
     99200   299.52806      1122.412       8585.132     
     99300   281.69616     -379.57447      8552.9214    
     99400   289.50267      483.03284      8500.2424    
     99500   302.3582       197.31427      8458.091     
     99600   296.4533      -557.18261      8470.7133    
     99700   296.05977     -1314.7707      8517.2626    
     99800   285.70149     -2230.4092      8553.4803    
     99900   299.89549     -1368.2183      8561.6265    
    100000   290.25199     -978.61639      8572.393     
Loop time of 570.474 on 1 procs for 100000 steps with 900 atoms

Performance: 7.573 ns/day, 3.169 hours/ns, 175.293 timesteps/s, 157.764 katom-step/s
92.6% CPU use with 1 MPI tasks x 1 OpenMP threads

MPI task timing breakdown:
Section |  min time  |  avg time  |  max time  |%varavg| %total
---------------------------------------------------------------
Pair    | 423.08     | 423.08     | 423.08     |   0.0 | 74.16
Bond    | 2.0822     | 2.0822     | 2.0822     |   0.0 |  0.36
Kspace  | 75.164     | 75.164     | 75.164     |   0.0 | 13.18
Neigh   | 19.334     | 19.334     | 19.334     |   0.0 |  3.39
Comm    | 3.5124     | 3.5124     | 3.5124     |   0.0 |  0.62
Output  | 0.34837    | 0.34837    | 0.34837    |   0.0 |  0.06
Modify  | 46.596     | 46.596     | 46.596     |   0.0 |  8.17
Other   |            | 0.3612     |            |       |  0.06

Nlocal:            900 ave         900 max         900 min
Histogram: 1 0 0 0 0 0 0 0 0 0
Nghost:           8347 ave        8347 max        8347 min
Histogram: 1 0 0 0 0 0 0 0 0 0
Neighs:         342047 ave      342047 max      342047 min
Histogram: 1 0 0 0 0 0 0 0 0 0
FullNghs:       683733 ave      683733 max      683733 min
Histogram: 1 0 0 0 0 0 0 0 0 0

Total # of neighbors = 683733
Ave neighs/atom = 759.70333
Ave special neighs/atom = 2
Neighbor list builds = 1920
Dangerous builds = 0
Total wall time: 0:09:30
